WARNING: for repeatability, setting FPU to use double precision
============================[ Problem Statistics ]=============================
|                                                                             |
|  Number of symmetries:          17                                          |
|  Number of invertingSyms:        0                                          |
|  Number of variables:            90                                         |
|  Number of clauses:             415                                         |
|  Parse time:                   0.00 s                                       |
|                                                                             |
============================[ Search Statistics ]==============================
| Conflicts |          ORIGINAL         |          LEARNT          | Progress |
|           |    Vars  Clauses Literals |    Limit  Clauses Lit/Cl |          |
===============================================================================
|       100 |      90      415      900 |      152      132     33 |  0.012 % |
|       250 |      90      415      900 |      167      162     27 |  0.012 % |
===============================================================================
restarts              : 4
conflicts             : 463            (inf /sec)
symconflicts          : 58             (inf /sec)
decisions             : 790            (0.00 % random) (inf /sec)
propagations          : 9445           (inf /sec)
sympropagations       : 438            (inf /sec)
conflict literals     : 12895          (5.75 % deleted)
Memory used           : 5.00 MB
CPU time              : 0 s

UNSATISFIABLE
